POSCAR file written by OVITO Pro 3.7.2
1
22.556 0.0 0.0
-11.278 19.5340690078 0.0
0.0 0.0 3.4
O N C H 
6 6 36 24 
Cartesian
0.45123278 10.2962124333 1.7
2.13560208 14.7767418416 1.7
-2.58683486 13.9951837406 1.7
10.82676722 9.2378565745 1.7
9.14239792 4.7573271662 1.7
13.86483486 5.5388852672 1.7
3.05024788 10.7851501806 1.7
0.41266202 16.7830860694 1.7
-3.4629099 11.4999017656 1.7
8.22775212 8.7489188272 1.7
10.86533798 2.7509829384 1.7
14.7409099 8.0341672422 1.7
0.25307832 11.5536204553 1.7
1.14573202 13.9764310344 1.7
-1.39881034 13.5380865258 1.7
11.02492168 7.9804485524 1.7
10.13226798 5.5576379734 1.7
12.67681034 5.9959824819 1.7
1.37174314 12.5141106284 1.7
-0.24540928 14.4649781002 1.7
-1.12633386 12.0890492868 1.7
9.90625686 7.0199583793 1.7
11.52340928 5.0690909075 1.7
12.40433386 7.4450197209 1.7
2.6852918 12.0689291958 1.7
-0.51664518 15.8251353253 1.7
-2.16864662 11.1740734945 1.7
8.5927082 7.465139812 1.7
11.79464518 3.7089336825 1.7
13.44664662 8.3599955133 1.7
4.31473724 10.2952357299 1.7
0.2046957 18.1231232033 1.7
-4.51943294 10.6497790823 1.7
6.96326276 9.2388332779 1.7
11.0733043 1.4109458044 1.7
15.79743294 8.8842899254 1.7
4.54300396 8.9055820606 1.7
1.29403772 19.0156348163 1.7
-5.83704168 11.1469211386 1.7
6.73499604 10.6284869471 1.7
9.98396228 0.5184341915 1.7
17.11504168 8.3871478692 1.7
5.44535674 11.1471164793 1.7
-1.09836442 18.6763280376 1.7
-4.34699232 9.2446934986 1.7
5.83264326 8.3869525285 1.7
12.37636442 0.8577409701 1.7
15.62499232 10.2893755091 1.7
3.68373314 8.2127086329 1.7
2.32371912 18.6179211713 1.7
-6.00745226 12.2375082113 1.7
7.59426686 11.3213603748 1.7
8.95428088 0.9161478365 1.7
17.28545226 7.2965607965 1.7
3.51230754 12.813763247 1.7
-1.57519826 16.1689349398 1.7
-1.93710928 10.0854398287 1.7
7.76569246 6.7203057607 1.7
12.85319826 3.365134068 1.7
13.21510928 9.4486291791 1.7
5.31205078 12.2449311575 1.7
-1.98244684 18.0119743507 1.7
-3.32960394 8.8112325073 1.7
5.96594922 7.2891378502 1.7
13.26044684 1.5220946571 1.7
14.60760394 10.7228365004 1.7
2.2296606 10.1077086674 1.7
1.40963722 16.4111573955 1.7
-3.63929782 12.5492719527 1.7
9.0483394 9.4263603404 1.7
9.86836278 3.1229116123 1.7
14.91729782 6.9847970551 1.7
